c Random 3-CNF over 9 variables and 12 clauses
c Generated with `cnfgen`
c (C) 2012-2019 Massimo Lauria <massimo.lauria@uniroma1.it>
c https://massimolauria.net/cnfgen
c
c COMMAND LINE: cnfgen -v -o rand3_1 randkcnf 3 9 12
c
p cnf 9 12
-1 5 6 0
-5 -6 7 0
-5 6 7 0
1 7 -9 0
-4 -5 9 0
1 4 5 0
1 2 6 0
2 -3 -6 0
5 -6 7 0
3 -7 9 0
-2 7 8 0
-2 -3 -9 0
